[[51, 12, 33, 43, 4, 25, 6, 15, 5, 24, 48, 46, 37, 38, 40, 39, 44, 34, 35, 36], [49, 32, 45, 10, 9, 8, 41, 19, 3, 18, 22, 31, 21, 17, 7, 2], [42, 30, 23, 20, 50, 16, 29, 47, 26, 28, 27, 13, 14, 52, 11]]